samf/hales/sun/fake2.in
32
0.00007

